p cnf 14 21
1 2 0
-2 -1 0
3 4 0
-4 -3 0
5 6 7 0
-6 -5 0
-7 -5 0
-7 -6 0
1 -8 0
2 8 0
-1 3 -9 0
-1 4 9 0
-2 3 -10 0
-2 4 10 0
-1 5 -11 0
-1 6 11 -12 0
-1 7 12 11 0
-2 5 -13 0
-2 6 13 -14 0
-2 7 14 13 0
1 0
